sat
(:added-eqs               14
 :arith-branch            129
 :arith-conflicts         10
 :arith-cube-calls        32
 :arith-cube-success      1
 :arith-fixed-eqs         15
 :arith-gcd-calls         130
 :arith-lower             98
 :arith-make-feasible     168
 :arith-max-columns       212
 :arith-max-rows          84
 :arith-patches           130
 :arith-upper             225
 :conflicts               10
 :decisions               140
 :final-checks            130
 :max-memory              75.77
 :memory                  32.46
 :mk-bool-var             323
 :mk-clause               10
 :num-allocs              5942108025.00
 :num-checks              2
 :propagations            3
 :rlimit-count            16780476
 :sat-backjumps           49936
 :sat-backtracks          123
 :sat-conflicts           50059
 :sat-decisions           175248
 :sat-del-clause          15301
 :sat-elim-bool-vars-res  2817
 :sat-elim-clauses        935
 :sat-elim-literals       525
 :sat-minimized-lits      599452
 :sat-mk-clause-2ary      37110
 :sat-mk-clause-3ary      9943
 :sat-mk-clause-nary      140827
 :sat-mk-var              34436
 :sat-probing-assigned    217
 :sat-propagations-2ary   8757924
 :sat-propagations-nary   7320375
 :sat-restarts            7008
 :sat-scc-elim-binary     2
 :sat-scc-elim-vars       1
 :sat-subs-resolution     72
 :sat-subs-resolution-dyn 14616
 :sat-subsumed            103
 :sat-units               238
 :time                    7.17
 :total-time              7.18)
